Test: battleship-07-12-unsat.cnf
Options: -no-inverting-opt -activity-nl-freq=1
WARNING: for repeatability, setting FPU to use double precision
============================[ Problem Statistics ]=============================
|                                                                             |
|  Number of symmetries:           10                                         |
|  Number of invertingSyms:         0                                         |
|  Number of variables:            84                                         |
|  Number of clauses:             301                                         |
|  Parse time:                   0.00 s                                       |
|                                                                             |
============================[ Search Statistics ]==============================
| Conflicts |          ORIGINAL         |          LEARNT          | Progress |
|           |    Vars  Clauses Literals |    Limit  Clauses Lit/Cl |          |
===============================================================================
|       100 |      84      301     1092 |      110      100     35 |  0.014 % |
|       250 |      84      301     1092 |      121      124     28 |  0.014 % |
|       475 |      84      301     1092 |      133      165     26 |  0.014 % |
|       812 |      84      301     1092 |      146       90     23 |  0.014 % |
|      1318 |      84      301     1092 |      161       81     21 |  0.014 % |
|      2077 |      84      301     1092 |      177      108     21 |  0.014 % |
|      3216 |      84      301     1092 |      195      127     22 |  0.014 % |
|      4924 |      84      301     1092 |      215      154     24 |  0.014 % |
|      7486 |      84      301     1092 |      236      256     27 |  0.014 % |
|     11330 |      84      301     1092 |      260      165     23 |  0.014 % |
|     17096 |      84      301     1092 |      286      245     25 |  0.014 % |
|     25745 |      84      301     1092 |      314      262     27 |  0.014 % |
|     38719 |      84      301     1092 |      346      239     25 |  0.014 % |
|     58180 |      84      301     1092 |      381      363     27 |  0.014 % |
|     87372 |      84      301     1092 |      419      422     26 |  0.014 % |
|    131161 |      84      301     1092 |      461      274     26 |  0.014 % |
|    196845 |      84      301     1092 |      507      345     26 |  0.014 % |
===============================================================================
restarts              : 572
conflicts             : 245353         (93640 /sec)
symconflicts          : 13784          (5261 /sec)
decisions             : 333575         (0.00 % random) (127311 /sec)
propagations          : 3285516        (1253936 /sec)
sympropagations       : 64498          (24616 /sec)
conflict literals     : 7959004        (2.97 % deleted)
literals     : 7959004        (2.97 % deleted)

HEURISTIC USAGES
random                : 0           
activity w/ lookahead : 0           
activity no lookahead : 333575      
original sp           : 0           
sym count             : 0           

Memory used           : 5.00 MB
CPU time              : 2.62016 s

UNSATISFIABLE
